orario = [19.30, 20.15, 20.00, 20.30, 21.15, 20.15, 20.30, 21.15, 20.00, 20.30, 20.00, 21.15];
num_pizze = [2, 4, 3, 5, 4, 2, 4, 7, 4, 4, 3, 5];
dest = [31, 149, 252, 99, 296, 124, 146, 61, 185, 78, 186, 77];
N = 12;
k = 297;
d = 3;
